p cnf 50 20
x 2 5 -6 -8 9 -11 -13 -16 -21 22 -23 24 -26 -27 -32 35 36 -37 38 -40 -41 -43 -47 48 49 0
x -1 2 3 -5 6 7 8 -9 -11 -14 -15 -16 -19 21 -23 -25 28 -30 31 -33 34 -35 -36 37 -38 -41 43 0
x 1 4 5 6 9 12 13 14 17 19 20 21 -22 23 25 27 31 -42 46 -49 0
x 1 -2 5 6 -9 -10 11 14 -15 -16 -20 21 23 26 -27 -28 -30 31 32 -33 38 40 41 42 44 -45 49 0
x 2 4 -7 -8 10 -11 13 14 -15 -19 22 23 -24 26 30 31 -36 -37 38 -39 40 42 -43 46 48 0
x -2 -3 4 -5 -6 -8 -11 14 15 -16 17 -18 -19 20 21 -22 27 29 -31 33 -36 -37 -38 39 42 -44 45 -46 49 50 0
x 1 -2 5 -6 -11 13 -14 -15 -16 18 -20 -21 -22 26 -27 -28 -33 -34 35 39 -41 43 -45 -46 48 -50 0
x 1 -4 6 8 -9 10 12 -14 -15 -16 -17 18 -20 -21 -24 27 30 32 33 38 39 40 -41 -43 -44 -48 0
x 2 -4 5 -6 7 12 -13 15 22 -23 -24 25 27 28 30 32 34 37 38 -42 -46 -47 -48 49 0
x 1 -2 -3 -5 -6 -7 8 16 17 18 -19 20 21 22 24 -27 32 -35 36 38 -43 48 0
x 1 -2 3 -4 5 7 -8 -9 11 12 15 -16 17 -21 22 23 24 -25 26 -27 -28 -31 32 35 -38 40 42 43 -46 50 0
x 1 5 -7 11 -19 -21 23 -24 -28 31 -33 -35 38 -39 -42 43 46 49 0
x -1 -3 4 7 9 -10 -11 -12 14 15 16 -17 18 -22 23 -24 25 26 27 -29 -30 -32 -33 34 36 -39 40 42 43 47 48 0
x 4 -6 7 -9 12 13 -14 -16 17 18 -19 20 -21 -26 -27 -31 -33 34 35 -37 41 42 43 44 46 48 -49 0
x -1 -2 -5 -7 9 10 13 -16 17 -19 20 -21 22 -25 28 -29 30 33 36 -39 40 -41 42 -44 45 46 -49 0
x -5 8 9 11 -15 17 19 -23 24 -26 -27 29 -30 -31 -34 35 36 -39 43 46 -48 -50 0
x 1 -3 5 -8 -10 11 16 -19 -20 21 -26 32 35 38 40 -42 43 -45 46 48 49 50 0
x 1 2 -3 -5 6 -7 8 10 11 -19 -22 -25 26 -27 -28 29 -30 -32 -35 -38 40 41 -47 49 50 0
x -2 11 13 14 15 -18 19 -20 -21 -22 26 28 -30 32 35 36 -37 39 40 41 -44 -45 -46 -49 0
x -1 -7 9 -13 -15 -18 -19 21 -25 -26 -28 -30 31 34 -36 -38 39 41 -42 -45 47 48 49 -50 0
g -10